n = 14; %number of posters
w = 19; %width
h = 19; %height

%ORIGINAL ORDER
ws = [4, 3, 3, 3, 3, 3, 3, 3, 3, 3, 3, 3, 4, 4];
hs = [7, 3, 4, 5, 6, 7, 8, 9, 10, 11, 13, 19, 5, 6];

%ORDER BY PERIMETER
%ws = [3, 3, 3, 3, 3, 3, 4, 4, 3, 4, 3, 3, 3, 3];
%hs = [19, 13, 11, 10, 9, 8, 7, 6, 7, 5, 6, 5, 4, 3];